C    N                                  
   1.00000000000000     
    12.3000001907000005    0.0000000000000000    0.0000000000000000
    -6.1500000954000003   10.6521126316999997    0.0000000000000000
     0.0000000000000000    0.0000000000000000   30.0000000000000000
   N 
     2
Selective dynamics
Direct
  0.6731913448025608  0.6698177538172061  0.6121651667828161   T   T   T
  0.5735741884841943  0.6282777333014025  0.6142867571653952   T   T   T
 
  0.00000000E+00  0.00000000E+00  0.00000000E+00
  0.00000000E+00  0.00000000E+00  0.00000000E+00
