C    N                                  
   1.00000000000000     
    12.3000001907000005    0.0000000000000000    0.0000000000000000
    -6.1500000954000003   10.6521126316999997    0.0000000000000000
     0.0000000000000000    0.0000000000000000   30.0000000000000000
      N 
       2
Selective dynamics
Direct
  0.6731913448025639  0.6698177538172064  0.6121651667828188   T   T   T
  0.5735741884841937  0.6282777333014051  0.6142867571653953   T   T   T
