$comment
Q-Chem 6.4 MPI smoke test based on the shipped 4-water MBE-BSSE sample.
$end

$rem
METHOD          B3LYP
BASIS           CC-PVDZ
MANY_BODY_INT   TRUE
THRESH          14
SCF_CONVERGENCE 8
SYM_IGNORE      TRUE
$end

$mbe
ORDER      3
BSSE_TYPE  MBCP
BSSE_ORDER 3
$end

$molecule
0 1
--
0 1
O -1.126149 -1.748387 -0.423240
H -0.234788 -1.493897 -0.661862
H -1.062789 -2.681331 -0.218819
--
0 1
O -0.254210  1.611495 -1.293845
H -1.001520  1.163510 -1.690129
H -0.153399  2.411746 -1.809248
--
0 1
O  1.694541 -0.226287  1.705739
H  0.785920  0.073487  1.677909
H  2.047134  0.150917  2.511706
--
0 1
O -0.864533  0.522472  1.218817
H -0.694120  1.093542  0.469789
H -1.131418 -0.310426  0.829702
$end
