#Put Keywords Here, check Charge and Multiplicity.

 

0  1
C          -0.89719        -0.14526        -0.01712
C          -0.31801         1.12052        -0.01605
N           1.02504         1.25819        -0.01068
C           1.78461         0.13754        -0.00340
O           2.98561         0.25331         0.01541
N           1.24135        -1.10509        -0.01035
C          -0.09959        -1.29101        -0.01466
O          -0.58644        -2.39340        -0.00752
N          -2.23565         0.02288        -0.00379
N          -1.29887         2.05099        -0.00104
C          -2.46211         1.35706         0.00590
C          -3.24554        -1.04475         0.01817
C           1.64933         2.58910         0.00651
C           2.12014        -2.28471         0.01048
H          -3.45128         1.81516         0.02537
H          -4.24346        -0.60797         0.05962
H          -3.15205        -1.64982        -0.88483
H          -3.08816        -1.67505         0.89347
H           2.04193         2.79132         1.00292
H           0.91133         3.34819        -0.25231
H           2.46435         2.61818        -0.71618
H           1.71573        -3.05255        -0.64840
H           3.11940        -2.01254        -0.32771
H           2.17598        -2.67402         1.02712

