%NProcShared=2
#n B3LYP/6-31G(d) Opt

 Acetyl-Chloride

0 1
C  
C   1 B1
H   2 B2 1 A2
H   2 B3 1 A3 3 D3
H   2 B4 1 A4 3 D4
O   1 B5 2 A5 3 D5
Cl  1 B6 2 A6 3 D6
Variables:
B1        2.16081
B2        1.07000
A2      109.47100
B3        1.07000
A3      109.47128
D3      240.00003
B4        1.07000
A4      109.47135
D4      120.00010
B5        2.06404
A5       66.74886
D5       41.41449
B6        2.68569
A6       91.20309
D6      286.38997

