%NProcShared=2
#n B3LYP/6-31G(d) Opt

 H2O

0 1
O  
H   1 B1
H   1 B2 2 A2
Variables:
B1        0.97000
B2        0.97000
A2      109.47100

