%mem=16GB
#p MP2/6-311+g** opt

HCl

0 1
H
Cl 1 r1

r1=2.5
