Na1 Cl1                                 
   1.00000000000000     
     3.4597622302039372   -0.0000000015035818    1.9974952340327916
     1.1532540753170555    3.2618955288066909    1.9974952340327907
    -0.0000000042527699   -0.0000000030071628    3.9949894827976102
   Na   Cl
     1     1
Direct
  0.0000000000000000  0.0000000000000000  0.0000000000000000
  0.5000000000000000  0.5000000000000000  0.5000000000000000
