#0: no gpu
#1: legacy
#2: openmp
#3: kokkos
gpu_option 2

# Crystalline Molybdenum: surface energy calculation
#################################################################
#Definition of occupation numbers 
##################################################################
occopt 7                        #Check this
tsmear 0.005
nband 96
#################################################################

#################################################################
#Defining geometry
##################################################################
acell 3.16844200 3.16844200 25.34753600 #10vaccum layers, units bohr
angdeg 90 90 90

xred
0.00000000 0.00000000 0.00000000
0.50000000 0.50000000 0.06250000
0.00000000 0.00000000 0.12500000
0.50000000 0.50000000 0.18750000
0.00000000 0.00000000 0.25000000
0.50000000 0.50000000 0.31250000
0.00000000 0.00000000 0.37500000
0.50000000 0.50000000 0.43750000
0.00000000 0.00000000 0.50000000
0.50000000 0.50000000 0.56250000
0.00000000 0.00000000 0.62500000
0.50000000 0.50000000 0.68750000
0.00000000 0.00000000 0.75000000
0.50000000 0.50000000 0.81250000
0.00000000 0.00000000 0.87500000
0.50000000 0.50000000 0.93750000

chkprim 0 

#################################################################
#Defining atoms
##################################################################
ntypat 1 # There is only one type of atom
znucl 42 # The keyword "znucl" refers to the atomic number of the 
         # Molybedum	
natom 16 # atoms per unit cell
typat 1 1 1 1 1 1 1 1 1 1 1 1 1 1 1 1           # This atom is of type 1, that is, Molybdenum

#################################################################
#Simulation parameters
##################################################################
ecut  50.0                       # Maximal kinetic energy cut-off, in Hartree
ixc 11                          # Perdew-Burke-Ernzerhof GGA functional [Perdew1996]
ngkpt    16 16 16                # Sampling of Brillouin zone in homogenous manner like
                                # Monkhorst-Pack grids
#nshiftk 1                       # number of shifted grids
#shiftk  0.5 0.5 0.5

#################################################################
#SCF procedure
##################################################################
nstep 5000                        # Maximal number of SCF cycles
toldfe 1.0d-10                  # Total energy tolerance 

#################################################################
#optcell 0
#ionmov 2
tolmxf 5.0d-4
ntime 100
#chksymbreak 0
chksymtnons 0
#################################################################

pseudos "42_Mo_PBE_fhi.txt"
