#opt Pt(bpy)bdt geometry at GS, Raman
#ORCA6.1.0.

! RKS Tightopt NumFreq B3LYP/G def2-TZVP SARC/J RIJCOSX SlowConv
! VeryTightSCF DefGrid3 xyzfile D4 CPCM(dcm)

%maxcore 6000

%pal nprocs 128
end

%basis newGTO Pt "def2-TZVPP" end
       newGTO S "def2-TZVPP" end
      end

#%Sym SymThresh 0.001 
#End

%elprop Polar 1  
        end  

%method SpecialGridAtoms 78
        SpecialGridIntAcc 7
end

%output print[p_mos] 1 
        Print[P_ReducedOrbPopMO_L] 1
        Print[ P_Basis ] 2
        end

* xyz 0 1
78       0.000058601     -0.179514164     -0.025872098
16      -1.592058205     -0.105685831      1.608375038
16       1.592146029     -0.105447909      1.608415352
7       -1.290432369     -0.162366876     -1.641626929
7        1.290508471     -0.162330003     -1.641661363
6       -2.612907861     -0.333871533     -1.543164316
1       -2.988392116     -0.597980712     -0.565242965
6       -3.457211931     -0.220548851     -2.629523806
1       -4.519089371     -0.376493953     -2.504024475
6       -2.913309392      0.121331070     -3.861596733
6       -1.540579170      0.280623412     -3.970384186
1       -1.100350917      0.543356877     -4.921771008
6       -0.734227205      0.118911613     -2.847256794
6        0.734259022      0.118895806     -2.847286264
6        1.540567959      0.280550637     -3.970450955
1        1.100307178      0.543239070     -4.921836603
6        2.913301939      0.121236816     -3.861712114
6        3.457245229     -0.220605497     -2.629646760
1        4.519125140     -0.376559068     -2.504180566
6        2.612981161     -0.333869252     -1.543248135
1        2.988496873     -0.597932943     -0.565325678
6       -0.698682925     -0.008365267      3.122201099
6       -1.388534247      0.083405387      4.336274317
1       -2.473470433      0.083542617      4.336632030
6       -0.697807928      0.178332807      5.534878525
1       -1.258798324      0.256668971      6.459043107
6        0.697675944      0.178471267      5.534904292
6        1.388482843      0.083694369      4.336333985
1        2.473418113      0.084008676      4.336739165
6        0.698712811     -0.008242637      3.122222880
1        1.258597158      0.256951322      6.459099099
1        3.549913137      0.228233817     -4.729516728
1       -3.549944215      0.228360965     -4.729380413
*










