## avogadro generated ORCA input file 
# Advanced Mode
# 
! B3LYP DEF2-SVP def2/J Grid4 NoFinalGrid xyzfile TightSCF RIJCOSX 

%tddft
	nroots 20
      maxdim 5  
end 

%basis
	NewGTO 78 "Def2-TZVP" end
	NewGTO 16 "Def2-TZVP" end
end

%pal
	nprocs 64
end

%output print[p_mos] 1 
        Print[ P_Basis ] 2
        Print[P_ReducedOrbPopMO_L] 1 
        end

* xyz 0 1 
6        0.772011463      5.114275914      0.005612697
6       -0.635801498      5.105125063      0.021688498
6        1.436545736      3.878567822     -0.007118825
6        0.708336326      2.687015074     -0.003163997
6       -0.711476458      2.700675429      0.014373030
6       -1.410686067      3.929036091      0.026370880
1       -1.158787189      6.057201720      0.030945924
1        2.526489149      3.805169105     -0.020099971
78       0.000000000      0.000000000      0.000000000
7        1.299847028     -1.528007074     -0.020865969
7       -1.282778175     -1.547742373      0.023072713
6        0.745153947     -2.782285046     -0.011680411
6        1.586733343     -3.906320125     -0.026847953
6        2.961828697     -3.743664684     -0.055018944
6        3.529052638     -2.443555658     -0.064601752
6        2.632053889     -1.365034725     -0.042140611
1        3.606028561     -4.625204225     -0.077522711
1        1.155812761     -4.908453096     -0.021144171
6       -0.707763680     -2.793428056      0.014953832
6       -1.529872921     -3.931805242      0.033525548
6       -2.907562301     -3.793797288      0.065940700
6       -3.496646988     -2.503609399      0.076244199
6       -2.617611251     -1.410586028      0.048031802
1       -2.967466726     -0.376972393      0.039174942
1       -3.536246717     -4.686361612      0.092053114
1       -1.081221545     -4.926139521      0.028176614
6       -4.939990944     -2.288930058      0.113497836
6        4.969164534     -2.206530062     -0.094850093
6       -5.635789651     -1.101198705      0.283178968
6       -7.040209702     -1.261801822      0.277226754
6       -7.447324461     -2.575888290      0.101096285
16      -6.061333243     -3.607521414     -0.070434465
1       -5.150553593     -0.134996440      0.427861215
1       -7.740094948     -0.436462014      0.418809631
6        5.647446792     -1.007576129     -0.254730982
6        7.054205052     -1.146217158     -0.243689585
6        7.480800532     -2.454816428     -0.073080912
16       6.110124101     -3.508567217      0.086664585
1        7.742064808     -0.309543801     -0.377595429
1        5.146878122     -0.048761901     -0.395529912
6        8.834727987     -2.974927159     -0.011871401
6        9.274166612     -4.281369912     -0.154239854
6       10.684112700     -4.417730971     -0.032999368
6       11.311877166     -3.217349151      0.199879116
16      10.188235895     -1.922094167      0.283514103
1        2.959839706     -0.323329348     -0.035076900
1       11.213363599     -5.367897174     -0.122118088
1       12.375794353     -3.024285902      0.328276504
1        8.600724803     -5.115980303     -0.358722895
6       -8.793340125     -3.116422556      0.042771721
6       -9.211886519     -4.430460475      0.178193266
6      -10.620111753     -4.587764169      0.062687666
6      -11.267408793     -3.395630520     -0.158912456
16     -10.164338965     -2.082602113     -0.238701765
1       -8.524658836     -5.255956426      0.373615304
1      -11.134212516     -5.546588406      0.147678720
1      -12.334779951     -3.218155234     -0.280983030
8        1.310929657      1.483101471     -0.015950559
8       -1.313743112      1.491223293      0.017572783
6       -2.953545577      3.966081203      0.038214259
6       -3.506176824      5.404102923      0.055137870
1       -3.183250139      5.961316840      0.948882224
1       -3.198421394      5.976554849     -0.834237337
1       -4.608194285      5.375152476      0.063863274
6       -3.498747006      3.268170757     -1.231117543
1       -3.168701401      3.799330634     -2.138901296
1       -3.143216863      2.230905338     -1.298084537
1       -4.603014795      3.263080470     -1.225746499
6       -3.484520834      3.245341824      1.300856802
1       -3.132792520      2.205410331      1.341472805
1       -3.139485107      3.755520504      2.215152418
1       -4.588857937      3.247345179      1.310202007
6        1.595574059      6.419947980      0.001792790
6        0.707282649      7.678022770      0.014181819
1        0.052745214      7.727371260     -0.870389902
1        0.070709688      7.722387894      0.912016244
1        1.338340387      8.581899056      0.010443532
6        2.478528246      6.472424812     -1.267335067
1        3.081518009      7.396766010     -1.285894794
1        3.172364514      5.619052136     -1.317578608
1        1.858212527      6.450696225     -2.178017211
6        2.502404920      6.464335630      1.254289261
1        1.899352769      6.437920306      2.176368816
1        3.196014659      5.609908054      1.286588382
1        3.106565142      7.388024814      1.266869440
*
